p tw 28 198
0 1
0 2
0 6
0 7
0 4
0 5
0 12
0 19
0 13
0 27
1 2
1 8
1 14
1 3
1 4
1 11
2 4
2 15
2 7
2 18
2 12
2 10
2 13
2 23
2 6
2 17
2 9
2 26
2 11
2 3
3 4
3 5
3 16
3 18
3 20
3 27
3 11
3 14
3 15
3 17
3 8
3 21
3 10
4 5
4 15
4 7
4 17
4 14
4 19
4 8
4 9
4 11
4 20
4 12
4 16
4 13
4 21
4 6
5 6
5 10
5 20
5 25
5 9
5 22
5 24
6 7
6 22
6 9
6 23
6 18
6 19
6 10
6 17
6 24
6 12
7 8
7 9
7 12
7 13
7 18
7 22
7 17
7 25
7 16
7 10
7 24
7 26
7 14
7 20
7 21
8 9
8 10
8 11
8 14
8 18
8 16
8 21
8 20
8 24
8 19
8 27
9 15
9 16
9 23
9 18
9 19
9 20
9 17
9 22
9 25
9 12
10 11
10 13
10 25
10 14
10 22
10 19
10 27
10 26
10 17
10 20
10 15
10 24
11 19
11 20
11 14
11 13
11 18
11 17
12 13
12 19
12 26
12 27
12 16
12 14
12 18
12 20
12 22
12 23
13 21
13 24
13 20
13 23
13 16
13 18
13 17
14 16
14 20
14 19
14 23
14 18
14 27
14 15
14 25
15 16
15 20
15 21
15 27
15 26
15 24
15 25
16 20
16 18
16 26
16 27
16 17
16 21
16 19
17 18
17 19
17 22
17 20
17 21
18 19
18 25
18 26
18 27
18 22
18 24
18 21
19 20
19 23
19 27
19 24
20 21
20 24
20 27
20 25
20 22
20 26
21 24
21 22
22 24
22 26
24 26
25 26
25 27
26 27
